0 0 0 0
0 1 0 0
0 2 0 0
0 3 0 1
0 4 0 4
0 5 0 12
0 6 1 16
0 7 0 11
0 8 2 8
0 9 0 4
0 10 2 8
0 11 0 14
0 12 0 21
0 13 0 21
0 14 2 12
0 15 0 30
0 16 0 25
0 17 1 25
0 18 0 27
0 19 0 3
0 20 2 26
0 21 0 24
0 22 2 24
0 23 2 27
0 24 0 17
0 25 0 33
0 26 0 36
0 27 0 33
0 28 0 33
0 29 0 40
0 30 0 40
0 31 0 42
